crystal structure from (V Ti Mo Ni)S2 with Hexaginal structure     #Header line
1.00000000000000     #Scaling parameter 
 11.560000   6.720000   0.00000           #my basis vectors from PRIMVEC
-11.56000    6.720000   0.00000
  0.00000    0.000000  30.00000
V Ti Mo Ni S    #The Number of per Ion specie 
4  4  4  4 32
Direct    #Could be direct or cartesian  
   23    0.0000000000    0.0000000000    0.0000000000     #atom positions from PRIMCOORD
   16   -0.9690000000    1.6790000000   -1.3380000000
   16    0.9690000000    1.6790000000    1.3380000000
   42   -2.8900000000    1.6800000000    0.0000000000
   16   -3.8590000000    3.3590000000   -1.3380000000
   16   -1.9210000000    3.3590000000    1.3380000000
   22   -5.7800000000    3.3600000000    0.0000000000
   16   -6.7490000000    5.0390000000   -1.3380000000
   16   -4.8110000000    5.0390000000    1.3380000000
   28   -8.6700000000    5.0400000000    0.0000000000
   16   -9.6390000000    6.7190000000   -1.3380000000
   16   -7.7010000000    6.7190000000    1.3380000000
   28    2.8900000000    1.6800000000    0.0000000000
   16    1.9210000000    3.3590000000   -1.3380000000
   16    3.8590000000    3.3590000000    1.3380000000
   22    0.0000000000    3.3600000000    0.0000000000
   16   -0.9690000000    5.0390000000   -1.3380000000
   16    0.9690000000    5.0390000000    1.3380000000
   42   -2.8900000000    5.0400000000    0.0000000000
   16   -3.8590000000    6.7190000000   -1.3380000000
   16   -1.9210000000    6.7190000000    1.3380000000
   28   -5.7800000000    6.7200000000    0.0000000000
   16   -6.7490000000    8.3990000000   -1.3380000000
   16   -4.8110000000    8.3990000000    1.3380000000
   23    5.7800000000    3.3600000000    0.0000000000
   16    4.8110000000    5.0390000000   -1.3380000000
   16    6.7490000000    5.0390000000    1.3380000000
   42    2.8900000000    5.0400000000    0.0000000000
   16    1.9210000000    6.7190000000   -1.3380000000
   16    3.8590000000    6.7190000000    1.3380000000
   22    0.0000000000    6.7200000000    0.0000000000
   16   -0.9690000000    8.3990000000   -1.3380000000
   16    0.9690000000    8.3990000000    1.3380000000
   23   -2.8900000000    8.4000000000    0.0000000000
   16   -3.8590000000   10.0790000000   -1.3380000000
   16   -1.9210000000   10.0790000000    1.3380000000
   28    8.6700000000    5.0400000000    0.0000000000
   16    7.7010000000    6.7190000000   -1.3380000000
   16    9.6390000000    6.7190000000    1.3380000000
   42    5.7800000000    6.7200000000    0.0000000000
   16    4.8110000000    8.3990000000   -1.3380000000
   16    6.7490000000    8.3990000000    1.3380000000
   22    2.8900000000    8.4000000000    0.0000000000
   16    1.9210000000   10.0790000000   -1.3380000000
   16    3.8590000000   10.0790000000    1.3380000000
   23    0.0000000000   10.0800000000    0.0000000000
   16   -0.9690000000   11.7590000000   -1.3380000000
   16    0.9690000000   11.7590000000    1.3380000000
